0 1 1 1 1 1 1 1 1 1 1 1 1
1 0 2 18 12 8 16 15 10 12 17 10 11
1 2 0 2 2 2 2 2 2 2 2 2 2
1 18 2 0 3 12 8 12 7 9 8 12 10
1 12 2 3 0 2 3 3 3 3 3 3 3
1 8 2 12 2 0 12 4 5 4 6 10 3
1 16 2 8 3 12 0 10 3 9 1 16 1
1 15 2 12 3 4 10 0 3 13 1 5 9
1 10 2 7 3 5 3 3 0 3 3 3 3
1 12 2 9 3 4 9 13 3 0 1 8 10
1 17 2 8 3 6 1 1 3 1 0 1 1
1 10 2 12 3 10 16 5 3 8 1 0 11
1 11 2 10 3 3 1 9 3 10 1 11 0 
